p cnf 220 658
-2 -9 0
-163 -9 0
2 3 8 0
2 -159 3 0
2 3 7 0
-2 -3 0
-2 159 -7 -8 0
3 -164 -4 0
3 -164 165 5 0
-3 164 0
-3 -165 4 0
-3 4 -5 0
4 -152 -155 -166 -168 0
-4 168 0
-4 152 0
-4 166 0
-4 155 0
5 -159 6 0
5 -160 6 0
5 -169 6 0
-5 -6 0
-5 159 160 169 0
6 152 168 0
-6 -152 0
-6 -168 0
7 -155 165 0
-7 155 0
-7 -165 0
8 -168 -171 0
-8 168 0
-8 171 0
9 -10 -80 -98 -114 0
-9 114 0
-9 10 0
-9 98 0
-9 80 0
10 -11 -31 -40 -48 0
-10 48 0
-10 11 0
-10 40 0
-10 31 0
11 12 15 -17 -21 0
-11 -12 0
-11 21 0
-11 17 0
-11 -15 0
12 -165 173 -13 -14 0
-12 14 0
-12 165 0
-12 13 0
-12 -173 0
13 -154 -158 0
-13 154 0
-13 158 0
14 -153 172 0
-14 153 0
-14 -172 0
15 163 171 174 -16 0
-15 16 0
-15 -174 0
-15 -163 0
-15 -171 0
16 -152 153 162 164 0
-16 -164 0
-16 -162 0
-16 152 0
-16 -153 0
17 -165 18 0
17 18 20 0
17 -163 18 0
-17 -18 0
-17 163 165 -20 0
18 154 157 161 -19 0
-18 19 0
-18 -161 0
-18 -154 0
-18 -157 0
19 160 -165 173 -175 0
-19 165 0
-19 -173 0
-19 -160 0
-19 175 0
20 -153 161 -164 175 0
-20 164 0
-20 -175 0
-20 153 0
-20 -161 0
21 14 22 -26 0
21 22 25 -26 0
-21 26 0
-21 -22 0
-21 -14 -25 0
22 -155 162 -166 -23 0
-22 23 0
-22 155 0
-22 166 0
-22 -162 0
23 -164 172 -24 0
-23 164 0
-23 -172 0
-23 24 0
24 153 154 0
-24 -153 0
-24 -154 0
25 -159 -164 -168 0
-25 159 0
-25 164 0
-25 168 0
26 -173 27 0
26 27 30 0
26 172 27 0
-26 -27 0
-26 -172 173 -30 0
27 -159 173 -28 -29 0
-27 29 0
-27 159 0
-27 28 0
-27 -173 0
28 -166 -168 0
-28 166 0
-28 168 0
29 -154 155 0
-29 154 0
-29 -155 0
30 152 -154 -163 -164 0
-30 -152 0
-30 164 0
-30 163 0
-30 154 0
31 6 32 -35 0
31 32 34 -35 0
-31 35 0
-31 -32 0
-31 -6 -34 0
32 154 162 -33 0
-32 33 0
-32 -162 0
-32 -154 0
33 163 -164 173 175 0
-33 164 0
-33 -175 0
-33 -163 0
-33 -173 0
34 158 -162 -169 -176 0
-34 -158 0
-34 176 0
-34 169 0
-34 162 0
35 36 38 0
35 37 38 0
35 164 38 0
-35 -38 0
-35 -164 -36 -37 0
36 -153 -163 0
-36 153 0
-36 163 0
37 -165 -174 0
-37 165 0
-37 174 0
38 162 -168 -174 -39 0
-38 -162 0
-38 39 0
-38 174 0
-38 168 0
39 152 -173 -24 0
-39 24 0
-39 173 0
-39 -152 0
40 30 -41 46 0
40 -41 45 46 0
-40 41 0
-40 -46 0
-40 -30 -45 0
41 42 44 0
41 165 42 0
41 175 42 0
-41 -42 0
-41 -165 -175 -44 0
42 -154 163 173 -43 0
-42 43 0
-42 -173 0
-42 154 0
-42 -163 0
43 153 160 -165 -174 0
-43 -153 0
-43 174 0
-43 165 0
-43 -160 0
44 -151 161 -163 164 0
-44 163 0
-44 -164 0
-44 151 0
-44 -161 0
45 159 -160 -173 -176 0
-45 -159 0
-45 176 0
-45 173 0
-45 160 0
46 170 175 -176 -47 0
-46 -170 0
-46 47 0
-46 176 0
-46 -175 0
47 151 152 -153 163 0
-47 -151 0
-47 -163 0
-47 153 0
-47 -152 0
48 49 53 56 -59 0
-48 59 0
-48 -56 0
-48 -49 0
-48 -53 0
49 164 175 -176 -50 0
-49 -164 0
-49 50 0
-49 176 0
-49 -175 0
50 -156 -161 -51 -52 0
-50 52 0
-50 156 0
-50 51 0
-50 161 0
51 -152 153 0
-51 152 0
-51 -153 0
52 151 159 0
-52 -151 0
-52 -159 0
53 154 -173 -54 0
53 154 -173 -55 0
-53 -154 0
-53 173 0
-53 54 55 0
54 155 -159 169 -171 0
-54 159 0
-54 -169 0
-54 -155 0
-54 171 0
55 156 -157 167 168 0
-55 157 0
-55 -168 0
-55 -156 0
-55 -167 0
56 -155 -13 -57 -58 0
-56 58 0
-56 155 0
-56 57 0
-56 13 0
57 -159 -163 -167 0
-57 159 0
-57 163 0
-57 167 0
58 -172 -176 0
-58 172 0
-58 176 0
59 -60 -71 77 78 0
-59 71 0
-59 -78 0
-59 60 0
-59 -77 0
60 -61 66 68 0
60 -61 67 68 0
-60 61 0
-60 -68 0
-60 -66 -67 0
61 62 64 0
61 63 64 0
61 58 64 0
-61 -64 0
-61 -58 -62 -63 0
62 -159 -160 175 0
-62 159 0
-62 160 0
-62 -175 0
63 -154 157 0
-63 154 0
-63 -157 0
64 -164 -170 176 -65 0
-64 65 0
-64 164 0
-64 170 0
-64 -176 0
65 151 -152 -153 -156 0
-65 -151 0
-65 156 0
-65 153 0
-65 152 0
66 162 -169 -171 -176 0
-66 -162 0
-66 176 0
-66 171 0
-66 169 0
67 -151 153 -158 159 0
-67 158 0
-67 -159 0
-67 151 0
-67 -153 0
68 171 -176 -69 -70 0
-68 -171 0
-68 70 0
-68 69 0
-68 176 0
69 162 -168 0
-69 -162 0
-69 168 0
70 -153 155 0
-70 153 0
-70 -155 0
71 72 74 0
71 73 74 0
71 24 74 0
-71 -74 0
-71 -24 -72 -73 0
72 -158 -167 172 -176 0
-72 176 0
-72 158 0
-72 167 0
-72 -172 0
73 156 157 0
-73 -156 0
-73 -157 0
74 -153 -160 -75 -76 0
-74 76 0
-74 153 0
-74 75 0
-74 160 0
75 163 165 -168 -172 0
-75 -163 0
-75 172 0
-75 168 0
-75 -165 0
76 154 159 0
-76 -154 0
-76 -159 0
77 -158 166 -58 -70 0
-77 70 0
-77 158 0
-77 58 0
-77 -166 0
78 -164 165 172 -79 0
-78 79 0
-78 -172 0
-78 164 0
-78 -165 0
79 153 160 0
-79 -153 0
-79 -160 0
80 81 86 -88 -91 0
-80 -81 0
-80 91 0
-80 88 0
-80 -86 0
81 171 -82 0
81 171 -84 -85 0
-81 -171 0
-81 82 85 0
-81 82 84 0
82 162 164 167 -83 0
-82 83 0
-82 -167 0
-82 -162 0
-82 -164 0
83 -153 -156 0
-83 153 0
-83 156 0
84 -155 158 0
-84 155 0
-84 -158 0
85 -162 163 165 169 0
-85 -169 0
-85 -165 0
-85 162 0
-85 -163 0
86 164 171 177 -87 0
-86 87 0
-86 -177 0
-86 -164 0
-86 -171 0
87 155 157 -162 -163 0
-87 -155 0
-87 163 0
-87 162 0
-87 -157 0
88 -176 0
88 -172 90 0
88 172 89 0
-88 -172 176 -90 0
-88 172 176 -89 0
89 155 -158 163 166 0
-89 158 0
-89 -166 0
-89 -155 0
-89 -163 0
90 153 163 -6 0
-90 6 0
-90 -163 0
-90 -153 0
91 -170 92 0
91 92 95 97 0
-91 -92 0
-91 170 -97 0
-91 170 -95 0
92 169 -94 0
92 169 -25 -93 0
-92 -169 0
-92 25 94 0
-92 93 94 0
93 -158 163 0
-93 158 0
-93 -163 0
94 -155 164 -57 0
-94 155 0
-94 -164 0
-94 57 0
95 -151 152 167 -96 0
-95 96 0
-95 -167 0
-95 151 0
-95 -152 0
96 155 166 0
-96 -155 0
-96 -166 0
97 -163 -165 168 -52 0
-97 52 0
-97 163 0
-97 165 0
-97 -168 0
98 -99 108 109 -111 0
-98 111 0
-98 -109 0
-98 99 0
-98 -108 0
99 101 102 -104 0
99 100 102 -104 0
-99 104 0
-99 -102 0
-99 -100 -101 0
100 -157 -161 0
-100 157 0
-100 161 0
101 158 167 175 176 0
-101 -176 0
-101 -175 0
-101 -158 0
-101 -167 0
102 -153 -163 175 -103 0
-102 103 0
-102 153 0
-102 163 0
-102 -175 0
103 -172 176 0
-103 172 0
-103 -176 0
104 155 106 0
104 -151 106 0
104 105 106 0
-104 -106 0
-104 151 -155 -105 0
105 160 170 171 176 0
-105 -176 0
-105 -171 0
-105 -160 0
-105 -170 0
106 176 177 -107 -76 0
-106 -176 0
-106 76 0
-106 107 0
-106 -177 0
107 160 173 0
-107 -160 0
-107 -173 0
108 157 -170 -177 -6 0
-108 -157 0
-108 6 0
-108 177 0
-108 170 0
109 -155 158 -100 -110 0
-109 110 0
-109 155 0
-109 100 0
-109 -158 0
110 159 -166 169 -177 0
-110 166 0
-110 -169 0
-110 -159 0
-110 177 0
111 -155 112 0
111 112 113 0
111 -151 112 0
-111 -112 0
-111 151 155 -113 0
112 -168 -171 177 -29 0
-112 29 0
-112 168 0
-112 171 0
-112 -177 0
113 -160 166 -175 176 0
-113 175 0
-113 -176 0
-113 160 0
-113 -166 0
114 -115 123 124 -128 0
-114 128 0
-114 -124 0
-114 115 0
-114 -123 0
115 29 116 -119 0
115 116 118 -119 0
-115 119 0
-115 -116 0
-115 -29 -118 0
116 -174 177 -7 -117 0
-116 117 0
-116 174 0
-116 7 0
-116 -177 0
117 -153 -160 0
-117 153 0
-117 160 0
118 -159 168 -172 177 0
-118 172 0
-118 -177 0
-118 159 0
-118 -168 0
119 120 121 0
119 -158 121 0
119 153 121 0
-119 -121 0
-119 -153 158 -120 0
120 162 165 168 -177 0
-120 177 0
-120 -168 0
-120 -162 0
-120 -165 0
121 -151 154 -122 0
-121 151 0
-121 -154 0
-121 122 0
122 163 164 -173 176 0
-122 -163 0
-122 -176 0
-122 173 0
-122 -164 0
123 173 -175 177 -63 0
-123 175 0
-123 -177 0
-123 -173 0
-123 63 0
124 177 -125 -126 -127 0
-124 -177 0
-124 127 0
-124 126 0
-124 125 0
125 -153 163 0
-125 153 0
-125 -163 0
126 172 176 0
-126 -172 0
-126 -176 0
127 -155 -161 0
-127 155 0
-127 161 0
128 39 129 0
128 -170 129 0
128 -177 129 0
-128 -129 0
-128 170 177 -39 0
129 -154 -158 -6 -130 0
-129 130 0
-129 154 0
-129 6 0
-129 158 0
130 153 156 173 176 0
-130 -176 0
-130 -173 0
-130 -153 0
-130 -156 0
-167 -142 0
167 142 0
169 133 0
-169 -133 0
133 158 183 0
133 159 183 0
-133 -183 0
-133 -158 -159 0
-170 184 0
170 -184 0
-166 135 0
135 155 -180 0
-135 -155 0
-135 180 0
-174 138 0
174 -138 0
-164 178 0
164 -178 0
168 -182 0
-168 182 0
138 153 -188 0
-138 -153 0
-138 188 0
-173 187 0
173 -187 0
-171 185 0
171 -185 0
176 -190 0
-176 190 0
155 166 -180 0
142 -155 -73 0
142 -155 181 0
142 181 -73 0
-142 -181 73 0
-142 155 73 0
-142 155 -181 0
-177 -147 0
177 147 0
-175 -145 0
175 145 0
145 189 146 0
145 161 -163 189 0
-145 -189 0
-145 -161 -146 0
-145 163 -146 0
146 -151 -157 0
-146 151 0
-146 157 0
147 191 -127 0
147 157 191 0
147 -153 191 0
-147 -191 0
-147 153 -157 127 0
-165 -149 0
165 149 0
172 150 0
-172 -150 0
149 160 179 0
149 -158 179 0
149 -163 179 0
-149 -179 0
-149 158 -160 163 0
150 186 24 0
150 163 186 0
-150 -186 0
-150 -163 -24 0
178 194 0
179 196 0
180 198 0
181 200 0
182 202 0
183 204 0
184 206 0
185 208 0
186 210 0
187 212 0
188 214 0
189 216 0
190 218 0
191 220 0
